0 3891
4 3886
6 3856
7 3845
9 3801
12 3763
13 3761
14 3716
16 3678
21 3672
24 3668
27 3628
29 3616
35 3584
37 3567
41 3550
57 3542
62 3530
69 3527
70 3520
96 3503
104 3472
107 3463
118 3458
148 3431
161 3427
164 3426
179 3424
189 3414
190 3402
193 3398
207 3365
239 3364
273 3351
287 3343
299 3334
309 3331
313 3321
321 3303
390 3292
436 3288
456 3287
517 3276
555 3271
598 3262
730 3253
743 3248
773 3240
797 3234
850 3226
1043 3225
1084 3221
1380 3213
1489 3211
1516 3201
1653 3190
1712 3189
3753 3188
3758 3184
3931 3183
3941 3180
3950 3173
4233 3171
4302 3163
4305 3159
4361 3156
4407 3153
4495 3151
4550 3142
5346 3140
5369 3138
5879 3128
5888 3124
5902 3119
6035 3113
6041 3111
